certificates/rado_a5_c287_N57.cnf
c Rad2 upper bound instance: x1 + 5*x2 - x3 = 287, interval [1,57]
p cnf 57 660
1 3 57 0
-1 -3 -57 0
2 4 57 0
-2 -4 -57 0
3 5 57 0
-3 -5 -57 0
4 6 57 0
-4 -6 -57 0
5 7 57 0
-5 -7 -57 0
1 8 56 0
-1 -8 -56 0
6 8 57 0
-6 -8 -57 0
2 9 56 0
-2 -9 -56 0
7 9 57 0
-7 -9 -57 0
3 10 56 0
-3 -10 -56 0
8 10 57 0
-8 -10 -57 0
4 11 56 0
-4 -11 -56 0
9 11 57 0
-9 -11 -57 0
5 12 56 0
-5 -12 -56 0
10 12 57 0
-10 -12 -57 0
1 13 55 0
-1 -13 -55 0
6 13 56 0
-6 -13 -56 0
11 13 57 0
-11 -13 -57 0
2 14 55 0
-2 -14 -55 0
7 14 56 0
-7 -14 -56 0
12 14 57 0
-12 -14 -57 0
3 15 55 0
-3 -15 -55 0
8 15 56 0
-8 -15 -56 0
13 15 57 0
-13 -15 -57 0
4 16 55 0
-4 -16 -55 0
9 16 56 0
-9 -16 -56 0
14 16 57 0
-14 -16 -57 0
5 17 55 0
-5 -17 -55 0
10 17 56 0
-10 -17 -56 0
15 17 57 0
-15 -17 -57 0
1 18 54 0
-1 -18 -54 0
6 18 55 0
-6 -18 -55 0
11 18 56 0
-11 -18 -56 0
16 18 57 0
-16 -18 -57 0
2 19 54 0
-2 -19 -54 0
7 19 55 0
-7 -19 -55 0
12 19 56 0
-12 -19 -56 0
17 19 57 0
-17 -19 -57 0
3 20 54 0
-3 -20 -54 0
8 20 55 0
-8 -20 -55 0
13 20 56 0
-13 -20 -56 0
18 20 57 0
-18 -20 -57 0
4 21 54 0
-4 -21 -54 0
9 21 55 0
-9 -21 -55 0
14 21 56 0
-14 -21 -56 0
19 21 57 0
-19 -21 -57 0
5 22 54 0
-5 -22 -54 0
10 22 55 0
-10 -22 -55 0
15 22 56 0
-15 -22 -56 0
20 22 57 0
-20 -22 -57 0
1 23 53 0
-1 -23 -53 0
6 23 54 0
-6 -23 -54 0
11 23 55 0
-11 -23 -55 0
16 23 56 0
-16 -23 -56 0
21 23 57 0
-21 -23 -57 0
2 24 53 0
-2 -24 -53 0
7 24 54 0
-7 -24 -54 0
12 24 55 0
-12 -24 -55 0
17 24 56 0
-17 -24 -56 0
22 24 57 0
-22 -24 -57 0
3 25 53 0
-3 -25 -53 0
8 25 54 0
-8 -25 -54 0
13 25 55 0
-13 -25 -55 0
18 25 56 0
-18 -25 -56 0
23 25 57 0
-23 -25 -57 0
4 26 53 0
-4 -26 -53 0
9 26 54 0
-9 -26 -54 0
14 26 55 0
-14 -26 -55 0
19 26 56 0
-19 -26 -56 0
24 26 57 0
-24 -26 -57 0
5 27 53 0
-5 -27 -53 0
10 27 54 0
-10 -27 -54 0
15 27 55 0
-15 -27 -55 0
20 27 56 0
-20 -27 -56 0
25 27 57 0
-25 -27 -57 0
1 28 52 0
-1 -28 -52 0
6 28 53 0
-6 -28 -53 0
11 28 54 0
-11 -28 -54 0
16 28 55 0
-16 -28 -55 0
21 28 56 0
-21 -28 -56 0
26 28 57 0
-26 -28 -57 0
2 29 52 0
-2 -29 -52 0
7 29 53 0
-7 -29 -53 0
12 29 54 0
-12 -29 -54 0
17 29 55 0
-17 -29 -55 0
22 29 56 0
-22 -29 -56 0
27 29 57 0
-27 -29 -57 0
3 30 52 0
-3 -30 -52 0
8 30 53 0
-8 -30 -53 0
13 30 54 0
-13 -30 -54 0
18 30 55 0
-18 -30 -55 0
23 30 56 0
-23 -30 -56 0
28 30 57 0
-28 -30 -57 0
4 31 52 0
-4 -31 -52 0
9 31 53 0
-9 -31 -53 0
14 31 54 0
-14 -31 -54 0
19 31 55 0
-19 -31 -55 0
24 31 56 0
-24 -31 -56 0
29 31 57 0
-29 -31 -57 0
5 32 52 0
-5 -32 -52 0
10 32 53 0
-10 -32 -53 0
15 32 54 0
-15 -32 -54 0
20 32 55 0
-20 -32 -55 0
25 32 56 0
-25 -32 -56 0
30 32 57 0
-30 -32 -57 0
1 33 51 0
-1 -33 -51 0
6 33 52 0
-6 -33 -52 0
11 33 53 0
-11 -33 -53 0
16 33 54 0
-16 -33 -54 0
21 33 55 0
-21 -33 -55 0
26 33 56 0
-26 -33 -56 0
31 33 57 0
-31 -33 -57 0
2 34 51 0
-2 -34 -51 0
7 34 52 0
-7 -34 -52 0
12 34 53 0
-12 -34 -53 0
17 34 54 0
-17 -34 -54 0
22 34 55 0
-22 -34 -55 0
27 34 56 0
-27 -34 -56 0
32 34 57 0
-32 -34 -57 0
3 35 51 0
-3 -35 -51 0
8 35 52 0
-8 -35 -52 0
13 35 53 0
-13 -35 -53 0
18 35 54 0
-18 -35 -54 0
23 35 55 0
-23 -35 -55 0
28 35 56 0
-28 -35 -56 0
33 35 57 0
-33 -35 -57 0
4 36 51 0
-4 -36 -51 0
9 36 52 0
-9 -36 -52 0
14 36 53 0
-14 -36 -53 0
19 36 54 0
-19 -36 -54 0
24 36 55 0
-24 -36 -55 0
29 36 56 0
-29 -36 -56 0
34 36 57 0
-34 -36 -57 0
5 37 51 0
-5 -37 -51 0
10 37 52 0
-10 -37 -52 0
15 37 53 0
-15 -37 -53 0
20 37 54 0
-20 -37 -54 0
25 37 55 0
-25 -37 -55 0
30 37 56 0
-30 -37 -56 0
35 37 57 0
-35 -37 -57 0
1 38 50 0
-1 -38 -50 0
6 38 51 0
-6 -38 -51 0
11 38 52 0
-11 -38 -52 0
16 38 53 0
-16 -38 -53 0
21 38 54 0
-21 -38 -54 0
26 38 55 0
-26 -38 -55 0
31 38 56 0
-31 -38 -56 0
36 38 57 0
-36 -38 -57 0
2 39 50 0
-2 -39 -50 0
7 39 51 0
-7 -39 -51 0
12 39 52 0
-12 -39 -52 0
17 39 53 0
-17 -39 -53 0
22 39 54 0
-22 -39 -54 0
27 39 55 0
-27 -39 -55 0
32 39 56 0
-32 -39 -56 0
37 39 57 0
-37 -39 -57 0
3 40 50 0
-3 -40 -50 0
8 40 51 0
-8 -40 -51 0
13 40 52 0
-13 -40 -52 0
18 40 53 0
-18 -40 -53 0
23 40 54 0
-23 -40 -54 0
28 40 55 0
-28 -40 -55 0
33 40 56 0
-33 -40 -56 0
38 40 57 0
-38 -40 -57 0
4 41 50 0
-4 -41 -50 0
9 41 51 0
-9 -41 -51 0
14 41 52 0
-14 -41 -52 0
19 41 53 0
-19 -41 -53 0
24 41 54 0
-24 -41 -54 0
29 41 55 0
-29 -41 -55 0
34 41 56 0
-34 -41 -56 0
39 41 57 0
-39 -41 -57 0
5 42 50 0
-5 -42 -50 0
10 42 51 0
-10 -42 -51 0
15 42 52 0
-15 -42 -52 0
20 42 53 0
-20 -42 -53 0
25 42 54 0
-25 -42 -54 0
30 42 55 0
-30 -42 -55 0
35 42 56 0
-35 -42 -56 0
40 42 57 0
-40 -42 -57 0
1 43 49 0
-1 -43 -49 0
6 43 50 0
-6 -43 -50 0
11 43 51 0
-11 -43 -51 0
16 43 52 0
-16 -43 -52 0
21 43 53 0
-21 -43 -53 0
26 43 54 0
-26 -43 -54 0
31 43 55 0
-31 -43 -55 0
36 43 56 0
-36 -43 -56 0
41 43 57 0
-41 -43 -57 0
2 44 49 0
-2 -44 -49 0
7 44 50 0
-7 -44 -50 0
12 44 51 0
-12 -44 -51 0
17 44 52 0
-17 -44 -52 0
22 44 53 0
-22 -44 -53 0
27 44 54 0
-27 -44 -54 0
32 44 55 0
-32 -44 -55 0
37 44 56 0
-37 -44 -56 0
42 44 57 0
-42 -44 -57 0
3 45 49 0
-3 -45 -49 0
8 45 50 0
-8 -45 -50 0
13 45 51 0
-13 -45 -51 0
18 45 52 0
-18 -45 -52 0
23 45 53 0
-23 -45 -53 0
28 45 54 0
-28 -45 -54 0
33 45 55 0
-33 -45 -55 0
38 45 56 0
-38 -45 -56 0
43 45 57 0
-43 -45 -57 0
4 46 49 0
-4 -46 -49 0
9 46 50 0
-9 -46 -50 0
14 46 51 0
-14 -46 -51 0
19 46 52 0
-19 -46 -52 0
24 46 53 0
-24 -46 -53 0
29 46 54 0
-29 -46 -54 0
34 46 55 0
-34 -46 -55 0
39 46 56 0
-39 -46 -56 0
44 46 57 0
-44 -46 -57 0
5 47 49 0
-5 -47 -49 0
10 47 50 0
-10 -47 -50 0
15 47 51 0
-15 -47 -51 0
20 47 52 0
-20 -47 -52 0
25 47 53 0
-25 -47 -53 0
30 47 54 0
-30 -47 -54 0
35 47 55 0
-35 -47 -55 0
40 47 56 0
-40 -47 -56 0
45 47 57 0
-45 -47 -57 0
1 48 0
-1 -48 0
6 48 49 0
-6 -48 -49 0
11 48 50 0
-11 -48 -50 0
16 48 51 0
-16 -48 -51 0
21 48 52 0
-21 -48 -52 0
26 48 53 0
-26 -48 -53 0
31 48 54 0
-31 -48 -54 0
36 48 55 0
-36 -48 -55 0
41 48 56 0
-41 -48 -56 0
46 48 57 0
-46 -48 -57 0
2 48 49 0
-2 -48 -49 0
7 49 0
-7 -49 0
12 49 50 0
-12 -49 -50 0
17 49 51 0
-17 -49 -51 0
22 49 52 0
-22 -49 -52 0
27 49 53 0
-27 -49 -53 0
32 49 54 0
-32 -49 -54 0
37 49 55 0
-37 -49 -55 0
42 49 56 0
-42 -49 -56 0
47 49 57 0
-47 -49 -57 0
3 48 50 0
-3 -48 -50 0
8 49 50 0
-8 -49 -50 0
13 50 0
-13 -50 0
18 50 51 0
-18 -50 -51 0
23 50 52 0
-23 -50 -52 0
28 50 53 0
-28 -50 -53 0
33 50 54 0
-33 -50 -54 0
38 50 55 0
-38 -50 -55 0
43 50 56 0
-43 -50 -56 0
48 50 57 0
-48 -50 -57 0
4 48 51 0
-4 -48 -51 0
9 49 51 0
-9 -49 -51 0
14 50 51 0
-14 -50 -51 0
19 51 0
-19 -51 0
24 51 52 0
-24 -51 -52 0
29 51 53 0
-29 -51 -53 0
34 51 54 0
-34 -51 -54 0
39 51 55 0
-39 -51 -55 0
44 51 56 0
-44 -51 -56 0
49 51 57 0
-49 -51 -57 0
5 48 52 0
-5 -48 -52 0
10 49 52 0
-10 -49 -52 0
15 50 52 0
-15 -50 -52 0
20 51 52 0
-20 -51 -52 0
25 52 0
-25 -52 0
30 52 53 0
-30 -52 -53 0
35 52 54 0
-35 -52 -54 0
40 52 55 0
-40 -52 -55 0
45 52 56 0
-45 -52 -56 0
50 52 57 0
-50 -52 -57 0
1 47 53 0
-1 -47 -53 0
6 48 53 0
-6 -48 -53 0
11 49 53 0
-11 -49 -53 0
16 50 53 0
-16 -50 -53 0
21 51 53 0
-21 -51 -53 0
26 52 53 0
-26 -52 -53 0
31 53 0
-31 -53 0
36 53 54 0
-36 -53 -54 0
41 53 55 0
-41 -53 -55 0
46 53 56 0
-46 -53 -56 0
51 53 57 0
-51 -53 -57 0
2 47 54 0
-2 -47 -54 0
7 48 54 0
-7 -48 -54 0
12 49 54 0
-12 -49 -54 0
17 50 54 0
-17 -50 -54 0
22 51 54 0
-22 -51 -54 0
27 52 54 0
-27 -52 -54 0
32 53 54 0
-32 -53 -54 0
37 54 0
-37 -54 0
42 54 55 0
-42 -54 -55 0
47 54 56 0
-47 -54 -56 0
52 54 57 0
-52 -54 -57 0
3 47 55 0
-3 -47 -55 0
8 48 55 0
-8 -48 -55 0
13 49 55 0
-13 -49 -55 0
18 50 55 0
-18 -50 -55 0
23 51 55 0
-23 -51 -55 0
28 52 55 0
-28 -52 -55 0
33 53 55 0
-33 -53 -55 0
38 54 55 0
-38 -54 -55 0
43 55 0
-43 -55 0
48 55 56 0
-48 -55 -56 0
53 55 57 0
-53 -55 -57 0
4 47 56 0
-4 -47 -56 0
9 48 56 0
-9 -48 -56 0
14 49 56 0
-14 -49 -56 0
19 50 56 0
-19 -50 -56 0
24 51 56 0
-24 -51 -56 0
29 52 56 0
-29 -52 -56 0
34 53 56 0
-34 -53 -56 0
39 54 56 0
-39 -54 -56 0
44 55 56 0
-44 -55 -56 0
49 56 0
-49 -56 0
54 56 57 0
-54 -56 -57 0
5 47 57 0
-5 -47 -57 0
10 48 57 0
-10 -48 -57 0
15 49 57 0
-15 -49 -57 0
20 50 57 0
-20 -50 -57 0
25 51 57 0
-25 -51 -57 0
30 52 57 0
-30 -52 -57 0
35 53 57 0
-35 -53 -57 0
40 54 57 0
-40 -54 -57 0
45 55 57 0
-45 -55 -57 0
50 56 57 0
-50 -56 -57 0
55 57 0
-55 -57 0
