certificates/rado_a5_c287_N57.drat
-57 0
55 0
-43 0
41 0
45 0
-29 0
-53 0
-33 0
7 0
27 0
31 0
51 0
35 0
21 0
11 0
-19 0
-39 0
-49 0
-15 0
-23 0
-9 0
-13 0
-3 0
-47 0
17 0
37 0
0
